dx = array1d(1..23, [3, 3, 3, 3, 3, 3, 3, 3, 3, 3, 3, 3, 3, 3, 3, 4, 4, 4,
    5, 5, 5, 5, 12]);

dy = array1d(1..23, [3, 4, 5, 6, 7, 8, 9, 10, 11, 12, 14, 15, 16, 24, 36,
    3, 11, 22, 3, 4, 14, 15, 36]);

w = 36;

n = 23;

